c cksystemsgroup.github.io/unicorn
c CNF contains a total of 364 clauses.
c CNF contains a total of 113 variables.
c CNF clauses cover 1 bad states.
c Variable name mapping (33 names):
c   2: input[bit=15]
c   5: input[bit=14]
c   8: input[bit=13]
c   11: input[bit=12]
c   14: input[bit=11]
c   17: input[bit=10]
c   20: input[bit=9]
c   23: input[bit=8]
c   26: input[bit=7]
c   29: input[bit=6]
c   32: input[bit=5]
c   35: input[bit=4]
c   38: input[bit=3]
c   41: input[bit=2]
c   44: input[bit=1]
c   47: input[bit=0]
c   65: input[bit=15]
c   67: input[bit=14]
c   69: input[bit=13]
c   71: input[bit=12]
c   73: input[bit=11]
c   75: input[bit=10]
c   77: input[bit=9]
c   79: input[bit=8]
c   81: input[bit=7]
c   83: input[bit=6]
c   85: input[bit=5]
c   87: input[bit=4]
c   89: input[bit=3]
c   91: input[bit=2]
c   93: input[bit=1]
c   95: input[bit=0]
c   113: ?
p cnf 113 364
-1 0
-2 -3 0
2 3 0
-4 0
-5 -6 0
5 6 0
-7 0
-8 -9 0
8 9 0
-10 0
-11 -12 0
11 12 0
-13 0
-14 -15 0
14 15 0
-16 0
-17 -18 0
17 18 0
-19 0
-20 -21 0
20 21 0
-22 0
-23 -24 0
23 24 0
-25 0
-26 -27 0
26 27 0
-28 0
-29 -30 0
29 30 0
-31 0
-32 -33 0
32 33 0
-34 0
-35 -36 0
35 36 0
-37 0
-38 -39 0
38 39 0
-40 0
-41 -42 0
41 42 0
-43 0
-44 -45 0
44 45 0
-46 0
-47 -48 0
47 48 0
45 46 -49 0
45 48 -49 0
-46 -48 49 0
46 48 -49 0
-45 -48 49 0
-45 -46 49 0
42 43 -50 0
42 49 -50 0
-43 -49 50 0
43 49 -50 0
-42 -49 50 0
-42 -43 50 0
39 40 -51 0
39 50 -51 0
-40 -50 51 0
40 50 -51 0
-39 -50 51 0
-39 -40 51 0
36 37 -52 0
36 51 -52 0
-37 -51 52 0
37 51 -52 0
-36 -51 52 0
-36 -37 52 0
33 34 -53 0
33 52 -53 0
-34 -52 53 0
34 52 -53 0
-33 -52 53 0
-33 -34 53 0
30 31 -54 0
30 53 -54 0
-31 -53 54 0
31 53 -54 0
-30 -53 54 0
-30 -31 54 0
27 28 -55 0
27 54 -55 0
-28 -54 55 0
28 54 -55 0
-27 -54 55 0
-27 -28 55 0
24 25 -56 0
24 55 -56 0
-25 -55 56 0
25 55 -56 0
-24 -55 56 0
-24 -25 56 0
21 22 -57 0
21 56 -57 0
-22 -56 57 0
22 56 -57 0
-21 -56 57 0
-21 -22 57 0
18 19 -58 0
18 57 -58 0
-19 -57 58 0
19 57 -58 0
-18 -57 58 0
-18 -19 58 0
15 16 -59 0
15 58 -59 0
-16 -58 59 0
16 58 -59 0
-15 -58 59 0
-15 -16 59 0
12 13 -60 0
12 59 -60 0
-13 -59 60 0
13 59 -60 0
-12 -59 60 0
-12 -13 60 0
9 10 -61 0
9 60 -61 0
-10 -60 61 0
10 60 -61 0
-9 -60 61 0
-9 -10 61 0
6 7 -62 0
6 61 -62 0
-7 -61 62 0
7 61 -62 0
-6 -61 62 0
-6 -7 62 0
3 4 -63 0
3 62 -63 0
-4 -62 63 0
4 62 -63 0
-3 -62 63 0
-3 -4 63 0
-63 -64 0
63 64 0
3 4 62 -66 0
3 4 -62 66 0
3 -4 62 66 0
3 -4 -62 -66 0
-3 4 62 66 0
-3 4 -62 -66 0
-3 -4 62 -66 0
-3 -4 -62 66 0
6 7 61 -68 0
6 7 -61 68 0
6 -7 61 68 0
6 -7 -61 -68 0
-6 7 61 68 0
-6 7 -61 -68 0
-6 -7 61 -68 0
-6 -7 -61 68 0
9 10 60 -70 0
9 10 -60 70 0
9 -10 60 70 0
9 -10 -60 -70 0
-9 10 60 70 0
-9 10 -60 -70 0
-9 -10 60 -70 0
-9 -10 -60 70 0
12 13 59 -72 0
12 13 -59 72 0
12 -13 59 72 0
12 -13 -59 -72 0
-12 13 59 72 0
-12 13 -59 -72 0
-12 -13 59 -72 0
-12 -13 -59 72 0
15 16 58 -74 0
15 16 -58 74 0
15 -16 58 74 0
15 -16 -58 -74 0
-15 16 58 74 0
-15 16 -58 -74 0
-15 -16 58 -74 0
-15 -16 -58 74 0
18 19 57 -76 0
18 19 -57 76 0
18 -19 57 76 0
18 -19 -57 -76 0
-18 19 57 76 0
-18 19 -57 -76 0
-18 -19 57 -76 0
-18 -19 -57 76 0
21 22 56 -78 0
21 22 -56 78 0
21 -22 56 78 0
21 -22 -56 -78 0
-21 22 56 78 0
-21 22 -56 -78 0
-21 -22 56 -78 0
-21 -22 -56 78 0
24 25 55 -80 0
24 25 -55 80 0
24 -25 55 80 0
24 -25 -55 -80 0
-24 25 55 80 0
-24 25 -55 -80 0
-24 -25 55 -80 0
-24 -25 -55 80 0
27 28 54 -82 0
27 28 -54 82 0
27 -28 54 82 0
27 -28 -54 -82 0
-27 28 54 82 0
-27 28 -54 -82 0
-27 -28 54 -82 0
-27 -28 -54 82 0
30 31 53 -84 0
30 31 -53 84 0
30 -31 53 84 0
30 -31 -53 -84 0
-30 31 53 84 0
-30 31 -53 -84 0
-30 -31 53 -84 0
-30 -31 -53 84 0
33 34 52 -86 0
33 34 -52 86 0
33 -34 52 86 0
33 -34 -52 -86 0
-33 34 52 86 0
-33 34 -52 -86 0
-33 -34 52 -86 0
-33 -34 -52 86 0
36 37 51 -88 0
36 37 -51 88 0
36 -37 51 88 0
36 -37 -51 -88 0
-36 37 51 88 0
-36 37 -51 -88 0
-36 -37 51 -88 0
-36 -37 -51 88 0
39 40 50 -90 0
39 40 -50 90 0
39 -40 50 90 0
39 -40 -50 -90 0
-39 40 50 90 0
-39 40 -50 -90 0
-39 -40 50 -90 0
-39 -40 -50 90 0
42 43 49 -92 0
42 43 -49 92 0
42 -43 49 92 0
42 -43 -49 -92 0
-42 43 49 92 0
-42 43 -49 -92 0
-42 -43 49 -92 0
-42 -43 -49 92 0
45 46 48 -94 0
45 46 -48 94 0
45 -46 48 94 0
45 -46 -48 -94 0
-45 46 48 94 0
-45 46 -48 -94 0
-45 -46 48 -94 0
-45 -46 -48 94 0
-48 -96 0
48 96 0
-95 -96 97 0
95 -97 0
96 -97 0
93 94 -98 0
93 97 -98 0
-94 -97 98 0
94 97 -98 0
-93 -97 98 0
-93 -94 98 0
91 92 -99 0
91 98 -99 0
-92 -98 99 0
92 98 -99 0
-91 -98 99 0
-91 -92 99 0
89 90 -100 0
89 99 -100 0
-90 -99 100 0
90 99 -100 0
-89 -99 100 0
-89 -90 100 0
87 88 -101 0
87 100 -101 0
-88 -100 101 0
88 100 -101 0
-87 -100 101 0
-87 -88 101 0
85 86 -102 0
85 101 -102 0
-86 -101 102 0
86 101 -102 0
-85 -101 102 0
-85 -86 102 0
83 84 -103 0
83 102 -103 0
-84 -102 103 0
84 102 -103 0
-83 -102 103 0
-83 -84 103 0
81 82 -104 0
81 103 -104 0
-82 -103 104 0
82 103 -104 0
-81 -103 104 0
-81 -82 104 0
79 80 -105 0
79 104 -105 0
-80 -104 105 0
80 104 -105 0
-79 -104 105 0
-79 -80 105 0
77 78 -106 0
77 105 -106 0
-78 -105 106 0
78 105 -106 0
-77 -105 106 0
-77 -78 106 0
75 76 -107 0
75 106 -107 0
-76 -106 107 0
76 106 -107 0
-75 -106 107 0
-75 -76 107 0
73 74 -108 0
73 107 -108 0
-74 -107 108 0
74 107 -108 0
-73 -107 108 0
-73 -74 108 0
71 72 -109 0
71 108 -109 0
-72 -108 109 0
72 108 -109 0
-71 -108 109 0
-71 -72 109 0
69 70 -110 0
69 109 -110 0
-70 -109 110 0
70 109 -110 0
-69 -109 110 0
-69 -70 110 0
67 68 -111 0
67 110 -111 0
-68 -110 111 0
68 110 -111 0
-67 -110 111 0
-67 -68 111 0
65 66 -112 0
65 111 -112 0
-66 -111 112 0
66 111 -112 0
-65 -111 112 0
-65 -66 112 0
1 64 112 -113 0
1 64 -112 113 0
1 -64 112 113 0
1 -64 -112 -113 0
-1 64 112 113 0
-1 64 -112 -113 0
-1 -64 112 -113 0
-1 -64 -112 113 0
113 0
